c User generated cnf file
p cnf 12 33
8 -12 9 0 
10 9 -9 0 
7 5 -6 0 
3 -1 3 0 
9 -10 9 0 
11 -9 8 0 
11 7 -9 0 
3 -1 7 0 
3 -5 6 0 
8 -5 7 0 
4 -12 5 0 
11 -7 12 0 
9 -1 7 0 
12 7 -3 0 
10 3 -8 0 
9 -3 2 0 
5 -7 10 0 
7 3 -2 0 
3 -12 9 0 
5 -5 7 0 
2 7 -9 0 
2 -8 8 0 
10 -9 8 0 
8 6 -3 0 
8 -1 1 0 
12 9 -7 0 
3 10 -7 0 
11 11 -1 0 
4 -11 2 0 
3 -10 6 0 
1 5 -7 0 
1 1 -2 0 
8 -10 6 0 
